
%FILE DATA:	Soccer Computational Problem for MiniZinc Models	%
%AUTHOR:	Jack Wall	%
%CONTACT:  	116397063@umail.ucc.ie			%
%LAST UPDATE:	03/03/2020, 16:38:38						%
%DESCRIPTION: 	77 games played with 33 games left				%


n=11; %number of teams

%Games to play
games=[|9,6|9,10|10,1|6,9|4,9|8,4|5,9|8,9|2,11|7,4|10,7|9,7|7,2|2,3|6,7|3,1|6,5|4,7|1,4|2,10|8,1|11,4|7,5|6,8|7,9|4,2|6,2|6,11|4,6|4,10|6,1|8,11|5,10|];

%Initial points
iPoints=[20,16,25,17,13,18,24,19,12,19,27];

%POSITION CONSTRAINTS
% [|teamID, operator, position|...]
% operators index:
%  1 for =  operator
%  2 for >  operator
%  3 for >= operator
%  4 for <  operator
%  5 for <= operator
positionConstraints=[|7,4,2|11,2,1|];